true true false
presolving:
presolving (0 rounds: 0 fast, 0 medium, 0 exhaustive):
 0 deleted vars, 0 deleted constraints, 0 added constraints, 0 tightened bounds, 0 added holes, 0 changed sides, 0 changed coefficients
 0 implications, 0 cliques
presolved problem has 49 variables (49 bin, 0 int, 0 impl, 0 cont) and 39 constraints
     39 constraints of type <linear>
transformed objective value is always integral (scale: 1)
Presolving Time: 0.00

 time | node  | left  |LP iter|LP it/n|mem/heur|mdpt |vars |cons |rows |cuts |sepa|confs|strbr|  dualbound   | primalbound  |  gap   | compl. 
p 0.0s|     1 |     0 |     0 |     - |shiftand|   0 |  49 |  39 |  39 |   0 |  0 |   0 |   0 |      --      | 1.000000e+01 |    Inf | unknown
 time | node  | left  |LP iter|LP it/n|mem/heur|mdpt |vars |cons |rows |cuts |sepa|confs|strbr|  dualbound   | primalbound  |  gap   | compl. 
  0.0s|     1 |     0 |    41 |     - |  2201k |   0 | 530 |  39 |  39 |   0 |  0 |   0 |   0 |-7.400000e+01 | 1.000000e+01 |    Inf | unknown
 time | node  | left  |LP iter|LP it/n|mem/heur|mdpt |vars |cons |rows |cuts |sepa|confs|strbr|  dualbound   | primalbound  |  gap   | compl. 
  1.3s|     1 |     0 |   214 |     - |  4645k |   0 |1242 |  39 |  39 |   0 |  0 |   0 |   0 | 9.000000e+00 | 1.000000e+01 |  11.11%| unknown
 time | node  | left  |LP iter|LP it/n|mem/heur|mdpt |vars |cons |rows |cuts |sepa|confs|strbr|  dualbound   | primalbound  |  gap   | compl. 
  1.4s|     1 |     2 |   691 |     - |  4957k |   0 |1242 |  39 |  39 |   0 |  1 |   0 |   0 | 9.000000e+00 | 1.000000e+01 |  11.11%| unknown
 time | node  | left  |LP iter|LP it/n|mem/heur|mdpt |vars |cons |rows |cuts |sepa|confs|strbr|  dualbound   | primalbound  |  gap   | compl. 
  1.5s|     2 |     3 |   702 |  11.0 |  5018k |   1 |1242 |  39 |  39 |   0 |  1 |   0 |   0 | 9.000000e+00 | 1.000000e+01 |  11.11%| unknown
 time | node  | left  |LP iter|LP it/n|mem/heur|mdpt |vars |cons |rows |cuts |sepa|confs|strbr|  dualbound   | primalbound  |  gap   | compl. 
  1.5s|     3 |     4 |   716 |  12.5 |  5318k |   1 |1242 |  39 |  39 |   0 |  1 |   0 |   0 | 9.000000e+00 | 1.000000e+01 |  11.11%| unknown
 time | node  | left  |LP iter|LP it/n|mem/heur|mdpt |vars |cons |rows |cuts |sepa|confs|strbr|  dualbound   | primalbound  |  gap   | compl. 
  1.5s|     4 |     5 |   718 |   9.0 |  5339k |   2 |1242 |  39 |  39 |   0 |  1 |   0 |   0 | 9.000000e+00 | 1.000000e+01 |  11.11%| unknown
 time | node  | left  |LP iter|LP it/n|mem/heur|mdpt |vars |cons |rows |cuts |sepa|confs|strbr|  dualbound   | primalbound  |  gap   | compl. 
  1.6s|     5 |     6 |   859 |  42.0 |  5361k |   2 |1242 |  39 |  39 |   0 |  1 |   0 |   0 | 9.000000e+00 | 1.000000e+01 |  11.11%| unknown
 time | node  | left  |LP iter|LP it/n|mem/heur|mdpt |vars |cons |rows |cuts |sepa|confs|strbr|  dualbound   | primalbound  |  gap   | compl. 
  1.6s|     6 |     7 |   878 |  37.4 |  5385k |   3 |1242 |  39 |  39 |   0 |  1 |   0 |   0 | 9.000000e+00 | 1.000000e+01 |  11.11%| unknown
 time | node  | left  |LP iter|LP it/n|mem/heur|mdpt |vars |cons |rows |cuts |sepa|confs|strbr|  dualbound   | primalbound  |  gap   | compl. 
  1.7s|     7 |     8 |   883 |  32.0 |  5399k |   4 |1242 |  39 |  39 |   0 |  1 |   0 |   0 | 9.000000e+00 | 1.000000e+01 |  11.11%| unknown
 time | node  | left  |LP iter|LP it/n|mem/heur|mdpt |vars |cons |rows |cuts |sepa|confs|strbr|  dualbound   | primalbound  |  gap   | compl. 
  1.7s|     8 |     9 |   895 |  29.1 |  5399k |   5 |1242 |  39 |  39 |   0 |  1 |   0 |   0 | 9.000000e+00 | 1.000000e+01 |  11.11%| unknown
 time | node  | left  |LP iter|LP it/n|mem/heur|mdpt |vars |cons |rows |cuts |sepa|confs|strbr|  dualbound   | primalbound  |  gap   | compl. 
  1.8s|     9 |    10 |   914 |  27.9 |  5399k |   5 |1242 |  39 |  39 |   0 |  1 |   0 |   0 | 9.000000e+00 | 1.000000e+01 |  11.11%| unknown
 time | node  | left  |LP iter|LP it/n|mem/heur|mdpt |vars |cons |rows |cuts |sepa|confs|strbr|  dualbound   | primalbound  |  gap   | compl. 
  1.8s|    10 |    11 |   923 |  25.8 |  5404k |   6 |1242 |  39 |  39 |   0 |  1 |   0 |   0 | 9.000000e+00 | 1.000000e+01 |  11.11%| unknown
 time | node  | left  |LP iter|LP it/n|mem/heur|mdpt |vars |cons |rows |cuts |sepa|confs|strbr|  dualbound   | primalbound  |  gap   | compl. 
  1.9s|    11 |    12 |   925 |  23.4 |  5405k |   7 |1242 |  39 |  39 |   0 |  1 |   0 |   0 | 9.000000e+00 | 1.000000e+01 |  11.11%| unknown
 time | node  | left  |LP iter|LP it/n|mem/heur|mdpt |vars |cons |rows |cuts |sepa|confs|strbr|  dualbound   | primalbound  |  gap   | compl. 
  2.0s|    12 |    13 |  1004 |  28.5 |  6852k |   8 |1675 |  39 |  39 |   0 |  1 |   0 |   0 | 9.000000e+00 | 1.000000e+01 |  11.11%| unknown
 time | node  | left  |LP iter|LP it/n|mem/heur|mdpt |vars |cons |rows |cuts |sepa|confs|strbr|  dualbound   | primalbound  |  gap   | compl. 
  2.1s|    13 |    14 |  1058 |  30.6 |  6915k |   8 |1675 |  39 |  39 |   0 |  1 |   0 |   0 | 9.000000e+00 | 1.000000e+01 |  11.11%| unknown
 time | node  | left  |LP iter|LP it/n|mem/heur|mdpt |vars |cons |rows |cuts |sepa|confs|strbr|  dualbound   | primalbound  |  gap   | compl. 
  2.2s|    14 |    15 |  1137 |  34.3 |  7344k |   8 |1857 |  39 |  39 |   0 |  1 |   0 |   0 | 9.000000e+00 | 1.000000e+01 |  11.11%| unknown
 time | node  | left  |LP iter|LP it/n|mem/heur|mdpt |vars |cons |rows |cuts |sepa|confs|strbr|  dualbound   | primalbound  |  gap   | compl. 
  2.5s|    15 |    16 |  1198 |  36.2 |  7398k |   8 |1903 |  39 |  39 |   0 |  1 |   0 |   0 | 9.000000e+00 | 1.000000e+01 |  11.11%| unknown
 time | node  | left  |LP iter|LP it/n|mem/heur|mdpt |vars |cons |rows |cuts |sepa|confs|strbr|  dualbound   | primalbound  |  gap   | compl. 
  2.7s|    16 |    17 |  1279 |  39.2 |  7510k |   8 |1916 |  39 |  39 |   0 |  1 |   0 |   0 | 9.000000e+00 | 1.000000e+01 |  11.11%| unknown
 time | node  | left  |LP iter|LP it/n|mem/heur|mdpt |vars |cons |rows |cuts |sepa|confs|strbr|  dualbound   | primalbound  |  gap   | compl. 
r 2.8s|    17 |     0 |  1296 |  37.8 |simplero|   8 |1916 |  39 |  39 |   0 |  0 |   0 |   0 | 9.000000e+00 | 9.000000e+00 |   0.00%|  99.43%

SCIP Status        : problem is solved [optimal solution found]
Solving Time (sec) : 2.80
Solving Nodes      : 17
Primal Bound       : +9.00000000000000e+00 (2 solutions)
Dual Bound         : +9.00000000000000e+00
Gap                : 0.00 %
Running with parallel: True bidir: True symbreak: False
Number of Nodes:  39
47.09115123316307% holds
starting cheapest insertion heuristic
Heuristic without TSP improvement:  11
Heuristic without TSP improvement time:  0.1
Heuristic Sol:  10
Heuristic total time:  0.1
[[14, 8, 26, 4, 12, 3, 1, 9, 17], [0, 10, 29, 28, 25, 6], [15, 32, 7], [16, 27, 11], [24, 21, 19], [38, 35, 22], [37, 18, 33, 31], [36, 23, 13], [34, 5], [30, 2, 20]]
Instance path:  /home/htc/mghannam/SCRATCH/lccp-rust/data/at84_ftv38.npcc
Timelimit:  7200
Heuristic without TSP improvement:  11
Heuristic without TSP improvement time:  0.1
Heuristic Sol:  10
Heuristic total time:  0.2
at 1 zero_duals: 29
Switching to elementary pricing
at1, LP obj: 10.0 n_added_paths: 481
updated lowerbound from -1e+20 to -74
at 1 zero_duals: 17
Switching to elementary pricing
at1, LP obj: 10.0 n_added_paths: 278
updated lowerbound from -74.0 to -23
at 1 zero_duals: 7
Switching to elementary pricing
at1, LP obj: 8.851851851851851 n_added_paths: 371
updated lowerbound from -23.0 to -18
at 1 zero_duals: 10
Switching to elementary pricing
at1, LP obj: 8.277777777777777 n_added_paths: 37
updated lowerbound from -18.0 to 7
at 1 zero_duals: 9
Switching to elementary pricing
at1, LP obj: 8.1875 n_added_paths: 24
updated lowerbound from 7.0 to 8
at 1 zero_duals: 7
Switching to elementary pricing
at1, LP obj: 8.173913043478262 n_added_paths: 2
updated lowerbound from 8.0 to 9
Gap too small = 0, stopping pricing with lb = 9
Gap too small = 0, stopping pricing with lb = 9
Gap too small = 0, stopping pricing with lb = 9
Gap too small = 0, stopping pricing with lb = 9
Gap too small = 0, stopping pricing with lb = 9
Gap too small = 0, stopping pricing with lb = 9
Gap too small = 0, stopping pricing with lb = 9
Gap too small = 0, stopping pricing with lb = 9
Gap too small = 0, stopping pricing with lb = 9
Gap too small = 0, stopping pricing with lb = 9
Gap too small = 0, stopping pricing with lb = 9
at 22 zero_duals: 11
Switching to elementary pricing
at22, LP obj: 9.2 n_added_paths: 433
Gap too small = 0, stopping pricing with lb = 9
Gap too small = 0, stopping pricing with lb = 9
at 21 zero_duals: 12
Switching to elementary pricing
at21, LP obj: 9.166666666666666 n_added_paths: 182
Gap too small = 0, stopping pricing with lb = 9
at 28 zero_duals: 14
Switching to elementary pricing
at28, LP obj: 9.166666666666668 n_added_paths: 28
at 28 zero_duals: 15
Switching to elementary pricing
at28, LP obj: 9.166666666666668 n_added_paths: 2
at 28 zero_duals: 15
Switching to elementary pricing
at28, LP obj: 9.166666666666668 n_added_paths: 2
at 28 zero_duals: 14
Switching to elementary pricing
at28, LP obj: 9.083333333333334 n_added_paths: 4
at 28 zero_duals: 12
Switching to elementary pricing
at28, LP obj: 9.0625 n_added_paths: 2
at 28 zero_duals: 5
Switching to elementary pricing
at28, LP obj: 9.058823529411764 n_added_paths: 8
Gap too small = 0, stopping pricing with lb = 9
at 29 zero_duals: 15
Switching to elementary pricing
at29, LP obj: 9.166666666666666 n_added_paths: 12
at 29 zero_duals: 16
Switching to elementary pricing
at29, LP obj: 9.166666666666666 n_added_paths: 1
Gap too small = 0, stopping pricing with lb = 9
Best solution found:
t_[16, 11, 15, 16] 1.0 1.0
checking cycle [16, 11, 15, 16]
[16, 11, 15, 16] 290 289
t_[38, 35, 22, 38] 1.0 1.0
checking cycle [38, 35, 22, 38]
[38, 35, 22, 38] 193 121
t_[34, 7, 32, 34] 1.0 1.0
checking cycle [34, 7, 32, 34]
[34, 7, 32, 34] 218 170
[1, 6, 2, 5, 1] 1.0 1.0
checking cycle [1, 6, 2, 5, 1]
[1, 6, 2, 5, 1] 347 322
[20, 30, 36, 23, 20] 1.0 1.0
checking cycle [20, 30, 36, 23, 20]
[20, 30, 36, 23, 20] 203 177
[14, 17, 26, 21, 19, 27, 8, 14] 1.0 1.0
checking cycle [14, 17, 26, 21, 19, 27, 8, 14]
[14, 17, 26, 21, 19, 27, 8, 14] 256 239
[25, 24, 28, 29, 10, 25] 1.0 1.0
checking cycle [25, 24, 28, 29, 10, 25]
[25, 24, 28, 29, 10, 25] 244 242
[31, 18, 33, 37, 31] 1.0 1.0
checking cycle [31, 18, 33, 37, 31]
[31, 18, 33, 37, 31] 194 172
[0, 13, 4, 12, 3, 9, 0] 1.0 1.0
checking cycle [0, 13, 4, 12, 3, 9, 0]
[0, 13, 4, 12, 3, 9, 0] 314 292
